c CNF file corresponding to a (partial) station packing problem.
p cnf 1291 229
1 2 3 4 5 6 7 8 9 10 11 12 13 14 0
-1 -2 0
-1 -3 0
-1 -4 0
-1 -5 0
-1 -6 0
-1 -7 0
-1 -8 0
-1 -9 0
-1 -10 0
-1 -11 0
-1 -12 0
-1 -13 0
-1 -14 0
-2 -3 0
-2 -4 0
-2 -5 0
-2 -6 0
-2 -7 0
-2 -8 0
-2 -9 0
-2 -10 0
-2 -11 0
-2 -12 0
-2 -13 0
-2 -14 0
-3 -4 0
-3 -5 0
-3 -6 0
-3 -7 0
-3 -8 0
-3 -9 0
-3 -10 0
-3 -11 0
-3 -12 0
-3 -13 0
-3 -14 0
-4 -5 0
-4 -6 0
-4 -7 0
-4 -8 0
-4 -9 0
-4 -10 0
-4 -11 0
-4 -12 0
-4 -13 0
-4 -14 0
-5 -6 0
-5 -7 0
-5 -8 0
-5 -9 0
-5 -10 0
-5 -11 0
-5 -12 0
-5 -13 0
-5 -14 0
-6 -7 0
-6 -8 0
-6 -9 0
-6 -10 0
-6 -11 0
-6 -12 0
-6 -13 0
-6 -14 0
-7 -8 0
-7 -9 0
-7 -10 0
-7 -11 0
-7 -12 0
-7 -13 0
-7 -14 0
-8 -9 0
-8 -10 0
-8 -11 0
-8 -12 0
-8 -13 0
-8 -14 0
-9 -10 0
-9 -11 0
-9 -12 0
-9 -13 0
-9 -14 0
-10 -11 0
-10 -12 0
-10 -13 0
-10 -14 0
-11 -12 0
-11 -13 0
-11 -14 0
-12 -13 0
-12 -14 0
-13 -14 0
1275 1276 1277 1278 1279 1280 1281 1282 1283 1284 1285 1286 1287 1288 1289 1290 1291 0
-1275 -1276 0
-1275 -1277 0
-1275 -1278 0
-1275 -1279 0
-1275 -1280 0
-1275 -1281 0
-1275 -1282 0
-1275 -1283 0
-1275 -1284 0
-1275 -1285 0
-1275 -1286 0
-1275 -1287 0
-1275 -1288 0
-1275 -1289 0
-1275 -1290 0
-1275 -1291 0
-1276 -1277 0
-1276 -1278 0
-1276 -1279 0
-1276 -1280 0
-1276 -1281 0
-1276 -1282 0
-1276 -1283 0
-1276 -1284 0
-1276 -1285 0
-1276 -1286 0
-1276 -1287 0
-1276 -1288 0
-1276 -1289 0
-1276 -1290 0
-1276 -1291 0
-1277 -1278 0
-1277 -1279 0
-1277 -1280 0
-1277 -1281 0
-1277 -1282 0
-1277 -1283 0
-1277 -1284 0
-1277 -1285 0
-1277 -1286 0
-1277 -1287 0
-1277 -1288 0
-1277 -1289 0
-1277 -1290 0
-1277 -1291 0
-1278 -1279 0
-1278 -1280 0
-1278 -1281 0
-1278 -1282 0
-1278 -1283 0
-1278 -1284 0
-1278 -1285 0
-1278 -1286 0
-1278 -1287 0
-1278 -1288 0
-1278 -1289 0
-1278 -1290 0
-1278 -1291 0
-1279 -1280 0
-1279 -1281 0
-1279 -1282 0
-1279 -1283 0
-1279 -1284 0
-1279 -1285 0
-1279 -1286 0
-1279 -1287 0
-1279 -1288 0
-1279 -1289 0
-1279 -1290 0
-1279 -1291 0
-1280 -1281 0
-1280 -1282 0
-1280 -1283 0
-1280 -1284 0
-1280 -1285 0
-1280 -1286 0
-1280 -1287 0
-1280 -1288 0
-1280 -1289 0
-1280 -1290 0
-1280 -1291 0
-1281 -1282 0
-1281 -1283 0
-1281 -1284 0
-1281 -1285 0
-1281 -1286 0
-1281 -1287 0
-1281 -1288 0
-1281 -1289 0
-1281 -1290 0
-1281 -1291 0
-1282 -1283 0
-1282 -1284 0
-1282 -1285 0
-1282 -1286 0
-1282 -1287 0
-1282 -1288 0
-1282 -1289 0
-1282 -1290 0
-1282 -1291 0
-1283 -1284 0
-1283 -1285 0
-1283 -1286 0
-1283 -1287 0
-1283 -1288 0
-1283 -1289 0
-1283 -1290 0
-1283 -1291 0
-1284 -1285 0
-1284 -1286 0
-1284 -1287 0
-1284 -1288 0
-1284 -1289 0
-1284 -1290 0
-1284 -1291 0
-1285 -1286 0
-1285 -1287 0
-1285 -1288 0
-1285 -1289 0
-1285 -1290 0
-1285 -1291 0
-1286 -1287 0
-1286 -1288 0
-1286 -1289 0
-1286 -1290 0
-1286 -1291 0
-1287 -1288 0
-1287 -1289 0
-1287 -1290 0
-1287 -1291 0
-1288 -1289 0
-1288 -1290 0
-1288 -1291 0
-1289 -1290 0
-1289 -1291 0
-1290 -1291 0
